c --- [ banner ] -------------------------------------------------------------
c 
c CaDiCaL Radically Simplified CDCL SAT Solver
c Copyright (c) 2016-2021 A. Biere, M. Fleury, N. Froleyks
c 
c Version 1.5.2 ca9bff05c11bde5eae4912f9932871d1527e61d8
c g++ (GCC) 9.3.0 -Wall -Wextra -O3 -DNDEBUG
c Thu Mar 31 01:52:53 EDT 2022 Linux gra-login3 3.10.0-1160.59.1.el7.x86_64 x86_64
c 
c --- [ limit ] --------------------------------------------------------------
c 
c setting conflict limit to 200000 conflicts (due to '200000')
c 
c --- [ parsing input ] ------------------------------------------------------
c 
c reading DIMACS file from '10.cubes947.adj'
c opening file to read '10.cubes947.adj'
c found 'p cnf 5320 922651' header
c parsed 922651 clauses in 8.83 seconds process time
c closing file '10.cubes947.adj'
c after reading 673840301 bytes 642.6 MB
c 
c --- [ options ] ------------------------------------------------------------
c 
c all options are set to their default value
c 
c --- [ solving ] ------------------------------------------------------------
c 
c time measured in process time since initialization
c 
c  seconds   reductions  redundant  irredundant
c          MB    restarts       trail      variables
c           level   conflicts       glue        remaining
c 
c *  8.83 675  0 0   0    0    0  0% 0 922009 4138 78%
c {  9.17 694  0 0   0    0    0  0% 0 922009 4138 78%
c i 10.02 711 166 0   1   59   52 42% 15 922009 4137 78%
c i 10.05 711 164 0   1   60   52 42% 15 922009 4115 77%
c i 10.06 711 152 0   1   65   55 41% 14 922009 4057 76%
c i 10.15 712 128 0   1   78   60 40% 12 922009 4034 76%
c i 10.20 714 39 0   1  284   85 34% 7 922009 4031 76%
c - 11.86 673 37 1   1  302   85 34% 7 141077 4029 76%
c i 11.90 673 30 1   1  384   97 34% 6 141077 3948 74%
c } 11.91 673 26 1   1  447  110 34% 6 141077 3842 72%
c 0 11.91 673 26 1   1  447  110 34% 6 141077 3842 72%
c 
c --- [ writing output ] -----------------------------------------------------
c 
c writing simplified CNF to DIMACS file 'simp/10.cubes947.adj.simp1'
c * 11.91 673 26 1   1  447  110 34% 6 141077 3842 72%
c opening file to write 'simp/10.cubes947.adj.simp1'
c writing 'p cnf 5320 1' header
c closing file 'simp/10.cubes947.adj.simp1'
c after writing 15 bytes 0.0 MB
c wrote 1 clauses in 0.00 seconds process time
c 
c --- [ writing extension ] --------------------------------------------------
c 
c writing extension stack to 'simp/10.cubes947.adj.ext1'
c opening file to write 'simp/10.cubes947.adj.ext1'
c closing file 'simp/10.cubes947.adj.ext1'
c after writing 0 bytes 0.0 MB
c wrote 0 witnesses in 0.00 seconds process time
c 
c --- [ result ] -------------------------------------------------------------
c 
s UNSATISFIABLE
c 
c --- [ run-time profiling ] -------------------------------------------------
c 
c process time taken by individual solving procedures
c (percentage relative to process time for solving)
c 
c         8.83  286.80% parse
c         3.08   99.99% search
c         2.74   88.91% unstable
c         0.34   11.08% lucky
c         0.00    0.00% simplify
c   =================================
c         3.08   25.85% solve
c 
c last line shows process time for solving
c (percentage relative to total process time)
c 
c --- [ statistics ] ---------------------------------------------------------
c 
c chronological:                62        13.87 %  of conflicts
c conflicts:                   447       145.18    per second
c decisions:                   813       264.05    per second
c fixed:                      1478        27.78 %  of all variables
c learned:                     445        99.55 %  per conflict
c learned_lits:               8407       100.00 %  learned literals
c minimized:                     0         0.00 %  learned literals
c shrunken:                   5141        61.15 %  learned literals
c minishrunken:                 84         1.00 %  learned literals
c propagations:              34615         0.01 M  per second
c restarts:                      1       447.00    interval
c subsumed:                    326         0.02 %  of all clauses
c 
c seconds are measured in process time for solving
c 
c --- [ resources ] ----------------------------------------------------------
c 
c total process time since initialization:        11.91    seconds
c total real time since initialization:           11.92    seconds
c maximum resident set size of process:          713.74    MB
c 
c --- [ shutting down ] ------------------------------------------------------
c 
c exit 20
c --- [ banner ] -------------------------------------------------------------
c 
c CaDiCaL Radically Simplified CDCL SAT Solver
c Copyright (c) 2016-2021 A. Biere, M. Fleury, N. Froleyks
c 
c Version 1.5.2 ca9bff05c11bde5eae4912f9932871d1527e61d8
c g++ (GCC) 9.3.0 -Wall -Wextra -O3 -DNDEBUG
c Thu Mar 31 01:52:53 EDT 2022 Linux gra-login3 3.10.0-1160.59.1.el7.x86_64 x86_64
c 
c --- [ limit ] --------------------------------------------------------------
c 
c setting conflict limit to 200000 conflicts (due to '200000')
c 
c --- [ parsing input ] ------------------------------------------------------
c 
c reading DIMACS file from 'simp/10.cubes947.adj.simp1'
c opening file to read 'simp/10.cubes947.adj.simp1'
c found 'p cnf 5320 1' header
c parsed 1 clauses in 0.00 seconds process time
c closing file 'simp/10.cubes947.adj.simp1'
c after reading 15 bytes 0.0 MB
c 
c --- [ options ] ------------------------------------------------------------
c 
c all options are set to their default value
c 
c --- [ solving ] ------------------------------------------------------------
c 
c time measured in process time since initialization
c 
c  seconds  reductions  redundant irredundant
c         MB    restarts       trail    variables
c          level   conflicts       glue     remaining
c 
c 0  0.00  2  0 0   0    0    0  0% 0    0   0  0%
c 
c --- [ writing output ] -----------------------------------------------------
c 
c writing simplified CNF to DIMACS file 'simp/10.cubes947.adj.simp2'
c *  0.00  3  0 0   0    0    0  0% 0    0   0  0%
c opening file to write 'simp/10.cubes947.adj.simp2'
c writing 'p cnf 5320 1' header
c closing file 'simp/10.cubes947.adj.simp2'
c after writing 15 bytes 0.0 MB
c wrote 1 clauses in 0.00 seconds process time
c 
c --- [ writing extension ] --------------------------------------------------
c 
c writing extension stack to 'simp/10.cubes947.adj.ext2'
c opening file to write 'simp/10.cubes947.adj.ext2'
c closing file 'simp/10.cubes947.adj.ext2'
c after writing 0 bytes 0.0 MB
c wrote 0 witnesses in 0.00 seconds process time
c 
c --- [ result ] -------------------------------------------------------------
c 
s UNSATISFIABLE
c 
c --- [ run-time profiling ] -------------------------------------------------
c 
c process time taken by individual solving procedures
c (percentage relative to process time for solving)
c 
c         0.00  877.17% parse
c         0.00    0.00% search
c         0.00    0.00% simplify
c   =================================
c         0.00    4.12% solve
c 
c last line shows process time for solving
c (percentage relative to total process time)
c 
c --- [ statistics ] ---------------------------------------------------------
c 
c minimized:                     0         0.00 %  learned literals
c shrunken:                      0         0.00 %  learned literals
c minishrunken:                  0         0.00 %  learned literals
c propagations:                  0         0.00 M  per second
c 
c seconds are measured in process time for solving
c 
c --- [ resources ] ----------------------------------------------------------
c 
c total process time since initialization:         0.00    seconds
c total real time since initialization:            0.02    seconds
c maximum resident set size of process:            2.66    MB
c 
c --- [ shutting down ] ------------------------------------------------------
c 
c exit 20
WARNING! DIMACS header mismatch: wrong number of variables.
============================[ Problem Statistics ]=============================
|                                                                             |
|  Number of variables:             0                                         |
|  Number of clauses:               0                                         |
|  Parse time:                   0.00 s                                       |
|  Simplification time:          0.00 s                                       |
|                                                                             |
===============================================================================
Solved by simplification
database reductions   : 0
restarts              : 0
conflicts             : 0              (-nan /sec)
decisions             : 0              (-nan % random) (-nan /sec)
propagations          : 0              (-nan /sec)
conflict literals     : 0              (-nan % deleted)
actual reward         : -nan
Memory used           : 5.00 MB
CPU time              : 0 s

UNSATISFIABLE
